(set-logic QF_BV)
(declare-fun _substvar_289_ () (_ BitVec 42))
(declare-fun _substvar_282_ () (_ BitVec 32))
(declare-fun _substvar_347_ () Bool)
(declare-fun _substvar_336_ () Bool)
(declare-fun _substvar_298_ () (_ BitVec 5))
(assert (let ((?v_3 (concat (_ bv1 1) (_ bv0 23)))) (let ( (?v_2 ((_ extract 4 4) _substvar_298_))) (let ((?v_5 (bvmul (concat (concat (_ bv0 25) ?v_2) _substvar_298_) (concat (_ bv0 5) (concat ?v_3 (_ bv0 2)))))) (let ((?v_4 ((_ extract 30 30) ?v_5))) (let ((?v_9 (bvadd (bvadd (concat (_ bv0 1) (bvadd (concat (_ bv0 11) (bvadd (concat (_ bv0 2) (concat ?v_3 (_ bv0 6))) (ite _substvar_336_ (bvlshr _substvar_282_ (_ bv31 32)) (ite _substvar_347_ (bvlshr _substvar_282_ (_ bv30 32)) (_ bv0 32))))) (concat (_ bv0 1) _substvar_289_))) (concat (concat (concat (concat (concat (concat (concat (concat (concat (concat (concat (concat (concat ?v_4 ?v_4) ?v_4) ?v_4) ?v_4) ?v_4) ?v_4) ?v_4) ?v_4) ?v_4) ?v_4) ?v_4) ?v_4) ?v_5)) (_ bv0 44)))) (not (= (concat (_ bv0 1) ((_ extract 42 0) ?v_9)) ?v_9))))))))
(check-sat)
(exit)
